c File: flat50_3_0.col
c
c SOURCE: Joseph Culberson (joe@cs.ualberta.ca)
c DESCRIPTION: Quasi-random coloring problem
c              generated with flatness = 0
c                             probability = 0.139
c                             known coloring = 3
c                             random seed = 1016
c              Creation Date:  Tue Jun  9 11:59:10 1998
c Maximum degree = 8 Minimum degree = 1
c p edge 50 115
c cnf created by edge2cnf
p cnf 150 545
-1 -2 0
-1 -3 0
-2 -3 0
1 2 3 0
-4 -5 0
-4 -6 0
-5 -6 0
4 5 6 0
-7 -8 0
-7 -9 0
-8 -9 0
7 8 9 0
-10 -11 0
-10 -12 0
-11 -12 0
10 11 12 0
-13 -14 0
-13 -15 0
-14 -15 0
13 14 15 0
-16 -17 0
-16 -18 0
-17 -18 0
16 17 18 0
-19 -20 0
-19 -21 0
-20 -21 0
19 20 21 0
-22 -23 0
-22 -24 0
-23 -24 0
22 23 24 0
-25 -26 0
-25 -27 0
-26 -27 0
25 26 27 0
-28 -29 0
-28 -30 0
-29 -30 0
28 29 30 0
-31 -32 0
-31 -33 0
-32 -33 0
31 32 33 0
-34 -35 0
-34 -36 0
-35 -36 0
34 35 36 0
-37 -38 0
-37 -39 0
-38 -39 0
37 38 39 0
-40 -41 0
-40 -42 0
-41 -42 0
40 41 42 0
-43 -44 0
-43 -45 0
-44 -45 0
43 44 45 0
-46 -47 0
-46 -48 0
-47 -48 0
46 47 48 0
-49 -50 0
-49 -51 0
-50 -51 0
49 50 51 0
-52 -53 0
-52 -54 0
-53 -54 0
52 53 54 0
-55 -56 0
-55 -57 0
-56 -57 0
55 56 57 0
-58 -59 0
-58 -60 0
-59 -60 0
58 59 60 0
-61 -62 0
-61 -63 0
-62 -63 0
61 62 63 0
-64 -65 0
-64 -66 0
-65 -66 0
64 65 66 0
-67 -68 0
-67 -69 0
-68 -69 0
67 68 69 0
-70 -71 0
-70 -72 0
-71 -72 0
70 71 72 0
-73 -74 0
-73 -75 0
-74 -75 0
73 74 75 0
-76 -77 0
-76 -78 0
-77 -78 0
76 77 78 0
-79 -80 0
-79 -81 0
-80 -81 0
79 80 81 0
-82 -83 0
-82 -84 0
-83 -84 0
82 83 84 0
-85 -86 0
-85 -87 0
-86 -87 0
85 86 87 0
-88 -89 0
-88 -90 0
-89 -90 0
88 89 90 0
-91 -92 0
-91 -93 0
-92 -93 0
91 92 93 0
-94 -95 0
-94 -96 0
-95 -96 0
94 95 96 0
-97 -98 0
-97 -99 0
-98 -99 0
97 98 99 0
-100 -101 0
-100 -102 0
-101 -102 0
100 101 102 0
-103 -104 0
-103 -105 0
-104 -105 0
103 104 105 0
-106 -107 0
-106 -108 0
-107 -108 0
106 107 108 0
-109 -110 0
-109 -111 0
-110 -111 0
109 110 111 0
-112 -113 0
-112 -114 0
-113 -114 0
112 113 114 0
-115 -116 0
-115 -117 0
-116 -117 0
115 116 117 0
-118 -119 0
-118 -120 0
-119 -120 0
118 119 120 0
-121 -122 0
-121 -123 0
-122 -123 0
121 122 123 0
-124 -125 0
-124 -126 0
-125 -126 0
124 125 126 0
-127 -128 0
-127 -129 0
-128 -129 0
127 128 129 0
-130 -131 0
-130 -132 0
-131 -132 0
130 131 132 0
-133 -134 0
-133 -135 0
-134 -135 0
133 134 135 0
-136 -137 0
-136 -138 0
-137 -138 0
136 137 138 0
-139 -140 0
-139 -141 0
-140 -141 0
139 140 141 0
-142 -143 0
-142 -144 0
-143 -144 0
142 143 144 0
-145 -146 0
-145 -147 0
-146 -147 0
145 146 147 0
-148 -149 0
-148 -150 0
-149 -150 0
148 149 150 0
-82 -1 0
-83 -2 0
-84 -3 0
-103 -1 0
-104 -2 0
-105 -3 0
-106 -1 0
-107 -2 0
-108 -3 0
-136 -1 0
-137 -2 0
-138 -3 0
-148 -1 0
-149 -2 0
-150 -3 0
-58 -4 0
-59 -5 0
-60 -6 0
-70 -4 0
-71 -5 0
-72 -6 0
-103 -4 0
-104 -5 0
-105 -6 0
-88 -7 0
-89 -8 0
-90 -9 0
-112 -7 0
-113 -8 0
-114 -9 0
-133 -7 0
-134 -8 0
-135 -9 0
-145 -7 0
-146 -8 0
-147 -9 0
-61 -10 0
-62 -11 0
-63 -12 0
-85 -10 0
-86 -11 0
-87 -12 0
-58 -13 0
-59 -14 0
-60 -15 0
-64 -13 0
-65 -14 0
-66 -15 0
-76 -13 0
-77 -14 0
-78 -15 0
-97 -13 0
-98 -14 0
-99 -15 0
-112 -13 0
-113 -14 0
-114 -15 0
-118 -13 0
-119 -14 0
-120 -15 0
-55 -16 0
-56 -17 0
-57 -18 0
-58 -16 0
-59 -17 0
-60 -18 0
-73 -16 0
-74 -17 0
-75 -18 0
-76 -16 0
-77 -17 0
-78 -18 0
-142 -16 0
-143 -17 0
-144 -18 0
-148 -16 0
-149 -17 0
-150 -18 0
-97 -19 0
-98 -20 0
-99 -21 0
-109 -19 0
-110 -20 0
-111 -21 0
-136 -19 0
-137 -20 0
-138 -21 0
-64 -22 0
-65 -23 0
-66 -24 0
-103 -22 0
-104 -23 0
-105 -24 0
-121 -22 0
-122 -23 0
-123 -24 0
-130 -22 0
-131 -23 0
-132 -24 0
-145 -22 0
-146 -23 0
-147 -24 0
-82 -25 0
-83 -26 0
-84 -27 0
-106 -25 0
-107 -26 0
-108 -27 0
-115 -25 0
-116 -26 0
-117 -27 0
-142 -25 0
-143 -26 0
-144 -27 0
-97 -28 0
-98 -29 0
-99 -30 0
-148 -28 0
-149 -29 0
-150 -30 0
-55 -31 0
-56 -32 0
-57 -33 0
-67 -31 0
-68 -32 0
-69 -33 0
-82 -31 0
-83 -32 0
-84 -33 0
-100 -31 0
-101 -32 0
-102 -33 0
-130 -31 0
-131 -32 0
-132 -33 0
-133 -31 0
-134 -32 0
-135 -33 0
-136 -31 0
-137 -32 0
-138 -33 0
-139 -31 0
-140 -32 0
-141 -33 0
-52 -34 0
-53 -35 0
-54 -36 0
-73 -34 0
-74 -35 0
-75 -36 0
-76 -34 0
-77 -35 0
-78 -36 0
-85 -34 0
-86 -35 0
-87 -36 0
-118 -34 0
-119 -35 0
-120 -36 0
-73 -37 0
-74 -38 0
-75 -39 0
-85 -37 0
-86 -38 0
-87 -39 0
-100 -37 0
-101 -38 0
-102 -39 0
-124 -37 0
-125 -38 0
-126 -39 0
-127 -37 0
-128 -38 0
-129 -39 0
-142 -37 0
-143 -38 0
-144 -39 0
-76 -40 0
-77 -41 0
-78 -42 0
-115 -40 0
-116 -41 0
-117 -42 0
-148 -40 0
-149 -41 0
-150 -42 0
-52 -43 0
-53 -44 0
-54 -45 0
-61 -43 0
-62 -44 0
-63 -45 0
-67 -43 0
-68 -44 0
-69 -45 0
-73 -43 0
-74 -44 0
-75 -45 0
-61 -46 0
-62 -47 0
-63 -48 0
-79 -46 0
-80 -47 0
-81 -48 0
-106 -46 0
-107 -47 0
-108 -48 0
-112 -46 0
-113 -47 0
-114 -48 0
-82 -49 0
-83 -50 0
-84 -51 0
-88 -49 0
-89 -50 0
-90 -51 0
-97 -49 0
-98 -50 0
-99 -51 0
-100 -49 0
-101 -50 0
-102 -51 0
-106 -49 0
-107 -50 0
-108 -51 0
-112 -49 0
-113 -50 0
-114 -51 0
-118 -49 0
-119 -50 0
-120 -51 0
-121 -49 0
-122 -50 0
-123 -51 0
-112 -52 0
-113 -53 0
-114 -54 0
-127 -52 0
-128 -53 0
-129 -54 0
-142 -55 0
-143 -56 0
-144 -57 0
-148 -55 0
-149 -56 0
-150 -57 0
-103 -58 0
-104 -59 0
-105 -60 0
-124 -58 0
-125 -59 0
-126 -60 0
-106 -61 0
-107 -62 0
-108 -63 0
-118 -61 0
-119 -62 0
-120 -63 0
-112 -64 0
-113 -65 0
-114 -66 0
-139 -64 0
-140 -65 0
-141 -66 0
-145 -64 0
-146 -65 0
-147 -66 0
-106 -67 0
-107 -68 0
-108 -69 0
-130 -67 0
-131 -68 0
-132 -69 0
-136 -67 0
-137 -68 0
-138 -69 0
-148 -67 0
-149 -68 0
-150 -69 0
-112 -70 0
-113 -71 0
-114 -72 0
-130 -70 0
-131 -71 0
-132 -72 0
-136 -70 0
-137 -71 0
-138 -72 0
-136 -73 0
-137 -74 0
-138 -75 0
-142 -73 0
-143 -74 0
-144 -75 0
-109 -76 0
-110 -77 0
-111 -78 0
-127 -76 0
-128 -77 0
-129 -78 0
-139 -76 0
-140 -77 0
-141 -78 0
-148 -76 0
-149 -77 0
-150 -78 0
-118 -79 0
-119 -80 0
-120 -81 0
-124 -79 0
-125 -80 0
-126 -81 0
-148 -79 0
-149 -80 0
-150 -81 0
-112 -82 0
-113 -83 0
-114 -84 0
-136 -82 0
-137 -83 0
-138 -84 0
-103 -85 0
-104 -86 0
-105 -87 0
-127 -85 0
-128 -86 0
-129 -87 0
-124 -88 0
-125 -89 0
-126 -90 0
-109 -91 0
-110 -92 0
-111 -93 0
-145 -94 0
-146 -95 0
-147 -96 0
-145 -97 0
-146 -98 0
-147 -99 0
-121 -100 0
-122 -101 0
-123 -102 0
-124 -100 0
-125 -101 0
-126 -102 0
